
  32    1
  10

   0   0  14 2 3 4 5 6 7 8 9 10 11 12 13 15 16 
  10   1   9 31 29 28 27 26 21 18 17 14 
   3   6   7 28 26 25 24 19 18 17 
   7   6   6 29 28 26 24 19 14 
  10   7   6 31 24 20 19 17 14 
  10   7   9 31 30 28 27 26 25 24 23 22 
   7   7   7 29 27 26 25 24 22 17 
   9   6   5 29 25 24 18 17 
   2   7   4 29 20 18 14 
   6   8   4 28 25 18 17 
   7   9   4 25 24 18 17 
   3   4   4 28 26 23 18 
  10   6   4 30 26 24 22 
   7  10   3 25 23 22 
   2   7   3 30 24 22 
   4   8   2 26 24 
   6   6   1 23 
   7   5   1 22 
   4   7   1 27 
   7  10   1 25 
   7   2   1 24 
   8   8   1 32
   5   6   1 32
   7   8   1 32
   1   4   1 32
   9   2   1 32
  10   3   1 32
   3   4   1 32
   2   6   1 32
  10   3   1 32
   8   7   1 32
   0   0   0 
